c "random instance"
p edges 150 3340
e 1 2
e 1 9
e 1 10
e 1 13
e 1 17
e 1 28
e 1 32
e 1 46
e 1 49
e 1 51
e 1 57
e 1 59
e 1 61
e 1 65
e 1 69
e 1 72
e 1 76
e 1 78
e 1 79
e 1 81
e 1 83
e 1 87
e 1 91
e 1 92
e 1 94
e 1 96
e 1 101
e 1 103
e 1 104
e 1 105
e 1 107
e 1 115
e 1 116
e 1 117
e 1 120
e 1 124
e 1 126
e 1 132
e 1 134
e 1 136
e 1 140
e 1 145
e 1 147
e 2 3
e 2 7
e 2 8
e 2 10
e 2 11
e 2 13
e 2 14
e 2 16
e 2 21
e 2 24
e 2 25
e 2 27
e 2 30
e 2 36
e 2 37
e 2 40
e 2 43
e 2 44
e 2 46
e 2 51
e 2 52
e 2 57
e 2 58
e 2 67
e 2 70
e 2 73
e 2 76
e 2 78
e 2 80
e 2 82
e 2 88
e 2 92
e 2 99
e 2 100
e 2 108
e 2 109
e 2 110
e 2 116
e 2 117
e 2 122
e 2 127
e 2 133
e 2 135
e 2 139
e 2 140
e 2 142
e 2 144
e 3 10
e 3 11
e 3 12
e 3 13
e 3 16
e 3 18
e 3 21
e 3 25
e 3 26
e 3 27
e 3 30
e 3 32
e 3 33
e 3 37
e 3 38
e 3 39
e 3 43
e 3 44
e 3 46
e 3 56
e 3 57
e 3 61
e 3 63
e 3 64
e 3 68
e 3 69
e 3 70
e 3 71
e 3 72
e 3 74
e 3 75
e 3 80
e 3 81
e 3 84
e 3 85
e 3 88
e 3 95
e 3 97
e 3 100
e 3 102
e 3 104
e 3 105
e 3 106
e 3 107
e 3 112
e 3 113
e 3 118
e 3 120
e 3 122
e 3 130
e 3 132
e 3 133
e 3 137
e 3 140
e 3 142
e 3 147
e 4 19
e 4 23
e 4 28
e 4 33
e 4 37
e 4 38
e 4 40
e 4 42
e 4 45
e 4 50
e 4 51
e 4 53
e 4 56
e 4 64
e 4 65
e 4 73
e 4 75
e 4 77
e 4 80
e 4 87
e 4 91
e 4 92
e 4 94
e 4 97
e 4 100
e 4 103
e 4 105
e 4 106
e 4 115
e 4 118
e 4 120
e 4 122
e 4 124
e 4 129
e 4 136
e 4 138
e 4 144
e 4 147
e 5 6
e 5 16
e 5 18
e 5 21
e 5 24
e 5 25
e 5 31
e 5 36
e 5 37
e 5 43
e 5 49
e 5 50
e 5 58
e 5 60
e 5 63
e 5 66
e 5 67
e 5 71
e 5 72
e 5 74
e 5 77
e 5 81
e 5 83
e 5 86
e 5 87
e 5 92
e 5 93
e 5 95
e 5 96
e 5 97
e 5 98
e 5 99
e 5 100
e 5 101
e 5 104
e 5 107
e 5 108
e 5 111
e 5 116
e 5 118
e 5 120
e 5 121
e 5 123
e 5 124
e 5 131
e 5 133
e 5 134
e 5 135
e 5 143
e 5 145
e 5 150
e 6 13
e 6 14
e 6 15
e 6 19
e 6 26
e 6 27
e 6 28
e 6 31
e 6 32
e 6 36
e 6 44
e 6 46
e 6 51
e 6 52
e 6 63
e 6 68
e 6 70
e 6 73
e 6 75
e 6 77
e 6 80
e 6 81
e 6 82
e 6 86
e 6 102
e 6 104
e 6 106
e 6 109
e 6 112
e 6 113
e 6 124
e 6 125
e 6 127
e 6 128
e 6 129
e 6 137
e 7 11
e 7 12
e 7 14
e 7 19
e 7 23
e 7 28
e 7 30
e 7 37
e 7 38
e 7 42
e 7 46
e 7 57
e 7 61
e 7 64
e 7 65
e 7 70
e 7 74
e 7 75
e 7 79
e 7 90
e 7 91
e 7 94
e 7 95
e 7 102
e 7 104
e 7 108
e 7 120
e 7 122
e 7 124
e 7 125
e 7 126
e 7 127
e 7 131
e 7 132
e 7 133
e 7 137
e 7 139
e 7 144
e 7 145
e 7 146
e 7 148
e 8 9
e 8 10
e 8 12
e 8 13
e 8 16
e 8 25
e 8 26
e 8 36
e 8 38
e 8 45
e 8 51
e 8 54
e 8 60
e 8 61
e 8 65
e 8 72
e 8 73
e 8 74
e 8 76
e 8 78
e 8 79
e 8 81
e 8 83
e 8 85
e 8 86
e 8 93
e 8 95
e 8 98
e 8 101
e 8 102
e 8 103
e 8 105
e 8 106
e 8 110
e 8 112
e 8 115
e 8 116
e 8 117
e 8 119
e 8 124
e 8 129
e 8 132
e 8 136
e 8 141
e 9 11
e 9 17
e 9 20
e 9 21
e 9 24
e 9 26
e 9 31
e 9 34
e 9 35
e 9 38
e 9 39
e 9 41
e 9 42
e 9 45
e 9 48
e 9 50
e 9 57
e 9 62
e 9 70
e 9 75
e 9 77
e 9 82
e 9 87
e 9 88
e 9 90
e 9 94
e 9 96
e 9 97
e 9 109
e 9 117
e 9 121
e 9 126
e 9 127
e 9 129
e 9 132
e 9 134
e 9 137
e 9 148
e 9 149
e 9 150
e 10 13
e 10 15
e 10 23
e 10 27
e 10 31
e 10 36
e 10 41
e 10 47
e 10 49
e 10 50
e 10 58
e 10 59
e 10 61
e 10 67
e 10 68
e 10 71
e 10 73
e 10 74
e 10 80
e 10 85
e 10 90
e 10 92
e 10 94
e 10 95
e 10 105
e 10 108
e 10 109
e 10 120
e 10 135
e 10 136
e 10 148
e 11 12
e 11 14
e 11 16
e 11 22
e 11 23
e 11 24
e 11 28
e 11 30
e 11 31
e 11 37
e 11 42
e 11 45
e 11 47
e 11 48
e 11 51
e 11 54
e 11 55
e 11 60
e 11 64
e 11 73
e 11 76
e 11 80
e 11 82
e 11 88
e 11 89
e 11 91
e 11 92
e 11 93
e 11 97
e 11 99
e 11 105
e 11 106
e 11 119
e 11 120
e 11 121
e 11 122
e 11 129
e 11 130
e 11 131
e 11 135
e 11 142
e 11 146
e 11 147
e 11 149
e 12 15
e 12 20
e 12 22
e 12 24
e 12 26
e 12 29
e 12 31
e 12 37
e 12 38
e 12 43
e 12 44
e 12 48
e 12 50
e 12 54
e 12 55
e 12 67
e 12 75
e 12 78
e 12 82
e 12 84
e 12 85
e 12 92
e 12 95
e 12 98
e 12 101
e 12 102
e 12 106
e 12 117
e 12 119
e 12 120
e 12 127
e 12 128
e 12 129
e 12 131
e 12 133
e 12 135
e 12 137
e 12 139
e 12 150
e 13 16
e 13 24
e 13 28
e 13 29
e 13 31
e 13 32
e 13 34
e 13 36
e 13 38
e 13 39
e 13 41
e 13 42
e 13 50
e 13 51
e 13 53
e 13 54
e 13 57
e 13 58
e 13 72
e 13 73
e 13 75
e 13 82
e 13 83
e 13 89
e 13 91
e 13 96
e 13 100
e 13 102
e 13 103
e 13 105
e 13 106
e 13 108
e 13 109
e 13 112
e 13 113
e 13 114
e 13 118
e 13 125
e 13 127
e 13 128
e 13 133
e 13 134
e 13 135
e 13 137
e 13 138
e 13 140
e 14 15
e 14 16
e 14 23
e 14 24
e 14 25
e 14 28
e 14 30
e 14 31
e 14 35
e 14 37
e 14 38
e 14 48
e 14 71
e 14 73
e 14 74
e 14 79
e 14 80
e 14 89
e 14 96
e 14 102
e 14 103
e 14 104
e 14 105
e 14 106
e 14 108
e 14 112
e 14 118
e 14 127
e 14 132
e 14 135
e 14 138
e 14 142
e 14 143
e 14 146
e 15 16
e 15 19
e 15 20
e 15 23
e 15 25
e 15 27
e 15 28
e 15 31
e 15 32
e 15 33
e 15 35
e 15 37
e 15 46
e 15 47
e 15 49
e 15 50
e 15 54
e 15 63
e 15 64
e 15 66
e 15 69
e 15 74
e 15 77
e 15 81
e 15 83
e 15 94
e 15 98
e 15 101
e 15 107
e 15 109
e 15 114
e 15 115
e 15 116
e 15 119
e 15 122
e 15 124
e 15 129
e 15 135
e 15 136
e 15 137
e 15 139
e 15 141
e 15 145
e 16 18
e 16 20
e 16 21
e 16 23
e 16 25
e 16 28
e 16 30
e 16 38
e 16 41
e 16 46
e 16 48
e 16 51
e 16 58
e 16 59
e 16 65
e 16 74
e 16 76
e 16 79
e 16 80
e 16 81
e 16 82
e 16 84
e 16 85
e 16 87
e 16 89
e 16 90
e 16 93
e 16 103
e 16 107
e 16 108
e 16 109
e 16 113
e 16 114
e 16 115
e 16 122
e 16 123
e 16 124
e 16 125
e 16 126
e 16 134
e 16 141
e 16 146
e 16 149
e 17 25
e 17 26
e 17 31
e 17 34
e 17 36
e 17 37
e 17 42
e 17 45
e 17 46
e 17 52
e 17 55
e 17 69
e 17 71
e 17 75
e 17 76
e 17 79
e 17 80
e 17 84
e 17 85
e 17 86
e 17 89
e 17 90
e 17 94
e 17 95
e 17 97
e 17 103
e 17 110
e 17 111
e 17 116
e 17 119
e 17 120
e 17 123
e 17 124
e 17 125
e 17 130
e 17 132
e 17 133
e 17 140
e 17 143
e 17 147
e 17 150
e 18 20
e 18 21
e 18 22
e 18 26
e 18 28
e 18 30
e 18 34
e 18 42
e 18 43
e 18 49
e 18 50
e 18 51
e 18 52
e 18 53
e 18 67
e 18 71
e 18 74
e 18 75
e 18 78
e 18 85
e 18 87
e 18 90
e 18 94
e 18 100
e 18 101
e 18 103
e 18 105
e 18 106
e 18 109
e 18 112
e 18 126
e 18 127
e 18 130
e 18 137
e 18 138
e 18 140
e 18 144
e 18 145
e 18 150
e 19 20
e 19 24
e 19 26
e 19 29
e 19 30
e 19 31
e 19 40
e 19 42
e 19 45
e 19 55
e 19 59
e 19 65
e 19 66
e 19 68
e 19 69
e 19 77
e 19 85
e 19 92
e 19 96
e 19 97
e 19 100
e 19 102
e 19 106
e 19 108
e 19 113
e 19 118
e 19 119
e 19 122
e 19 130
e 19 132
e 19 137
e 19 149
e 20 21
e 20 28
e 20 31
e 20 36
e 20 37
e 20 39
e 20 43
e 20 44
e 20 45
e 20 49
e 20 50
e 20 52
e 20 55
e 20 57
e 20 60
e 20 62
e 20 64
e 20 66
e 20 67
e 20 69
e 20 70
e 20 73
e 20 75
e 20 76
e 20 81
e 20 84
e 20 87
e 20 88
e 20 89
e 20 96
e 20 99
e 20 102
e 20 108
e 20 117
e 20 122
e 20 123
e 20 125
e 20 127
e 20 129
e 20 131
e 20 137
e 20 138
e 20 142
e 20 143
e 20 144
e 20 145
e 20 150
e 21 23
e 21 26
e 21 32
e 21 34
e 21 36
e 21 39
e 21 40
e 21 43
e 21 46
e 21 52
e 21 55
e 21 61
e 21 63
e 21 64
e 21 68
e 21 70
e 21 79
e 21 87
e 21 89
e 21 91
e 21 96
e 21 100
e 21 102
e 21 115
e 21 119
e 21 125
e 21 128
e 21 129
e 21 138
e 21 139
e 21 141
e 21 142
e 21 144
e 21 145
e 21 146
e 22 26
e 22 28
e 22 35
e 22 38
e 22 39
e 22 43
e 22 45
e 22 47
e 22 54
e 22 76
e 22 77
e 22 78
e 22 82
e 22 84
e 22 87
e 22 93
e 22 97
e 22 98
e 22 99
e 22 102
e 22 108
e 22 111
e 22 115
e 22 119
e 22 121
e 22 122
e 22 123
e 22 124
e 22 130
e 22 131
e 22 132
e 22 136
e 22 138
e 22 145
e 23 24
e 23 26
e 23 27
e 23 32
e 23 34
e 23 37
e 23 38
e 23 42
e 23 43
e 23 46
e 23 48
e 23 51
e 23 52
e 23 55
e 23 59
e 23 69
e 23 71
e 23 72
e 23 75
e 23 76
e 23 77
e 23 78
e 23 80
e 23 82
e 23 85
e 23 88
e 23 89
e 23 91
e 23 95
e 23 96
e 23 97
e 23 101
e 23 107
e 23 110
e 23 111
e 23 112
e 23 113
e 23 117
e 23 118
e 23 119
e 23 120
e 23 121
e 23 123
e 23 124
e 23 125
e 23 127
e 23 128
e 23 129
e 23 130
e 23 131
e 23 138
e 23 142
e 23 148
e 23 149
e 24 25
e 24 29
e 24 31
e 24 36
e 24 37
e 24 38
e 24 40
e 24 51
e 24 53
e 24 60
e 24 61
e 24 62
e 24 64
e 24 65
e 24 67
e 24 73
e 24 77
e 24 78
e 24 80
e 24 81
e 24 82
e 24 87
e 24 88
e 24 89
e 24 91
e 24 93
e 24 98
e 24 101
e 24 102
e 24 103
e 24 104
e 24 111
e 24 112
e 24 118
e 24 125
e 24 127
e 24 128
e 24 129
e 24 132
e 24 133
e 24 134
e 24 136
e 24 137
e 24 142
e 24 143
e 24 146
e 25 27
e 25 28
e 25 32
e 25 34
e 25 36
e 25 41
e 25 42
e 25 46
e 25 47
e 25 48
e 25 52
e 25 56
e 25 60
e 25 62
e 25 63
e 25 64
e 25 66
e 25 70
e 25 74
e 25 77
e 25 86
e 25 87
e 25 92
e 25 93
e 25 94
e 25 96
e 25 97
e 25 105
e 25 107
e 25 114
e 25 117
e 25 118
e 25 119
e 25 124
e 25 127
e 25 130
e 25 132
e 25 134
e 25 135
e 25 140
e 25 147
e 26 27
e 26 31
e 26 34
e 26 36
e 26 40
e 26 43
e 26 52
e 26 54
e 26 56
e 26 60
e 26 62
e 26 63
e 26 67
e 26 68
e 26 75
e 26 76
e 26 86
e 26 90
e 26 93
e 26 94
e 26 95
e 26 96
e 26 101
e 26 106
e 26 107
e 26 108
e 26 109
e 26 110
e 26 118
e 26 123
e 26 125
e 26 132
e 26 147
e 26 148
e 27 30
e 27 34
e 27 38
e 27 39
e 27 42
e 27 48
e 27 57
e 27 62
e 27 63
e 27 72
e 27 73
e 27 75
e 27 79
e 27 83
e 27 86
e 27 91
e 27 92
e 27 97
e 27 98
e 27 104
e 27 109
e 27 113
e 27 114
e 27 115
e 27 118
e 27 119
e 27 124
e 27 128
e 27 130
e 27 134
e 27 135
e 27 139
e 27 143
e 27 145
e 27 148
e 27 150
e 28 30
e 28 33
e 28 34
e 28 37
e 28 40
e 28 41
e 28 45
e 28 46
e 28 48
e 28 49
e 28 53
e 28 56
e 28 57
e 28 60
e 28 62
e 28 63
e 28 64
e 28 65
e 28 70
e 28 71
e 28 75
e 28 77
e 28 80
e 28 84
e 28 86
e 28 87
e 28 88
e 28 89
e 28 91
e 28 93
e 28 94
e 28 98
e 28 99
e 28 101
e 28 107
e 28 110
e 28 112
e 28 114
e 28 120
e 28 121
e 28 126
e 28 130
e 28 132
e 28 136
e 28 140
e 28 141
e 28 144
e 29 30
e 29 32
e 29 33
e 29 34
e 29 35
e 29 36
e 29 38
e 29 39
e 29 40
e 29 47
e 29 50
e 29 51
e 29 54
e 29 56
e 29 71
e 29 72
e 29 73
e 29 74
e 29 75
e 29 79
e 29 80
e 29 81
e 29 85
e 29 91
e 29 92
e 29 95
e 29 97
e 29 98
e 29 101
e 29 112
e 29 113
e 29 119
e 29 120
e 29 123
e 29 127
e 29 130
e 29 131
e 29 135
e 29 137
e 29 141
e 29 146
e 30 33
e 30 36
e 30 37
e 30 38
e 30 40
e 30 41
e 30 47
e 30 50
e 30 53
e 30 59
e 30 61
e 30 67
e 30 68
e 30 70
e 30 71
e 30 73
e 30 75
e 30 79
e 30 87
e 30 91
e 30 92
e 30 93
e 30 96
e 30 104
e 30 106
e 30 108
e 30 109
e 30 115
e 30 119
e 30 123
e 30 124
e 30 127
e 30 129
e 30 131
e 30 132
e 30 137
e 30 144
e 30 147
e 30 149
e 31 33
e 31 40
e 31 41
e 31 43
e 31 51
e 31 52
e 31 57
e 31 59
e 31 60
e 31 61
e 31 69
e 31 74
e 31 83
e 31 87
e 31 96
e 31 100
e 31 102
e 31 108
e 31 109
e 31 112
e 31 121
e 31 132
e 31 139
e 31 145
e 32 40
e 32 41
e 32 43
e 32 49
e 32 53
e 32 59
e 32 62
e 32 64
e 32 65
e 32 67
e 32 71
e 32 81
e 32 84
e 32 87
e 32 91
e 32 92
e 32 99
e 32 101
e 32 103
e 32 115
e 32 121
e 32 126
e 32 128
e 32 130
e 32 132
e 32 136
e 32 141
e 32 145
e 33 37
e 33 42
e 33 45
e 33 67
e 33 68
e 33 70
e 33 71
e 33 73
e 33 75
e 33 78
e 33 79
e 33 80
e 33 82
e 33 83
e 33 85
e 33 86
e 33 91
e 33 95
e 33 96
e 33 97
e 33 98
e 33 103
e 33 106
e 33 107
e 33 108
e 33 109
e 33 110
e 33 111
e 33 112
e 33 114
e 33 115
e 33 116
e 33 119
e 33 122
e 33 124
e 33 128
e 33 138
e 33 139
e 34 36
e 34 39
e 34 40
e 34 42
e 34 48
e 34 54
e 34 61
e 34 63
e 34 68
e 34 77
e 34 80
e 34 83
e 34 88
e 34 89
e 34 90
e 34 91
e 34 99
e 34 101
e 34 106
e 34 109
e 34 110
e 34 123
e 34 124
e 34 125
e 34 131
e 34 143
e 34 145
e 34 147
e 34 150
e 35 40
e 35 41
e 35 44
e 35 45
e 35 49
e 35 52
e 35 54
e 35 56
e 35 69
e 35 70
e 35 72
e 35 73
e 35 77
e 35 79
e 35 80
e 35 81
e 35 83
e 35 85
e 35 87
e 35 88
e 35 92
e 35 93
e 35 97
e 35 100
e 35 101
e 35 102
e 35 104
e 35 106
e 35 109
e 35 112
e 35 115
e 35 116
e 35 126
e 35 132
e 35 135
e 35 137
e 35 140
e 35 143
e 35 145
e 35 147
e 35 150
e 36 40
e 36 42
e 36 43
e 36 45
e 36 46
e 36 58
e 36 59
e 36 61
e 36 64
e 36 65
e 36 68
e 36 74
e 36 76
e 36 79
e 36 81
e 36 82
e 36 83
e 36 85
e 36 86
e 36 88
e 36 91
e 36 92
e 36 98
e 36 102
e 36 107
e 36 108
e 36 111
e 36 124
e 36 127
e 36 128
e 36 132
e 36 136
e 36 140
e 36 144
e 36 147
e 36 148
e 37 39
e 37 56
e 37 57
e 37 58
e 37 60
e 37 61
e 37 64
e 37 67
e 37 70
e 37 71
e 37 73
e 37 77
e 37 82
e 37 88
e 37 96
e 37 98
e 37 100
e 37 109
e 37 112
e 37 115
e 37 119
e 37 120
e 37 124
e 37 127
e 37 131
e 37 145
e 37 146
e 37 149
e 38 41
e 38 45
e 38 46
e 38 47
e 38 49
e 38 54
e 38 55
e 38 58
e 38 61
e 38 67
e 38 71
e 38 72
e 38 75
e 38 80
e 38 83
e 38 85
e 38 88
e 38 92
e 38 94
e 38 99
e 38 100
e 38 110
e 38 116
e 38 118
e 38 124
e 38 127
e 38 130
e 38 131
e 38 133
e 38 136
e 38 137
e 38 139
e 38 147
e 38 150
e 39 40
e 39 41
e 39 45
e 39 47
e 39 55
e 39 59
e 39 63
e 39 68
e 39 72
e 39 77
e 39 88
e 39 90
e 39 91
e 39 93
e 39 98
e 39 102
e 39 104
e 39 108
e 39 109
e 39 115
e 39 126
e 39 127
e 39 128
e 39 132
e 39 134
e 39 135
e 39 139
e 39 143
e 39 144
e 39 145
e 39 149
e 40 42
e 40 48
e 40 53
e 40 57
e 40 58
e 40 65
e 40 68
e 40 72
e 40 74
e 40 77
e 40 79
e 40 82
e 40 89
e 40 90
e 40 96
e 40 101
e 40 105
e 40 107
e 40 108
e 40 109
e 40 110
e 40 114
e 40 117
e 40 118
e 40 123
e 40 124
e 40 127
e 40 135
e 40 137
e 40 142
e 40 149
e 40 150
e 41 42
e 41 43
e 41 48
e 41 49
e 41 51
e 41 53
e 41 58
e 41 60
e 41 63
e 41 71
e 41 75
e 41 83
e 41 84
e 41 86
e 41 87
e 41 91
e 41 93
e 41 94
e 41 97
e 41 98
e 41 100
e 41 102
e 41 109
e 41 112
e 41 117
e 41 120
e 41 121
e 41 123
e 41 124
e 41 125
e 41 134
e 41 135
e 41 137
e 41 138
e 41 141
e 41 142
e 41 145
e 41 148
e 42 46
e 42 50
e 42 51
e 42 54
e 42 61
e 42 62
e 42 65
e 42 73
e 42 75
e 42 80
e 42 83
e 42 84
e 42 87
e 42 88
e 42 90
e 42 102
e 42 104
e 42 105
e 42 108
e 42 111
e 42 112
e 42 116
e 42 123
e 42 125
e 42 129
e 42 135
e 42 137
e 42 144
e 42 148
e 42 150
e 43 44
e 43 49
e 43 51
e 43 55
e 43 61
e 43 62
e 43 63
e 43 65
e 43 67
e 43 79
e 43 81
e 43 88
e 43 93
e 43 94
e 43 96
e 43 99
e 43 105
e 43 106
e 43 111
e 43 114
e 43 115
e 43 122
e 43 127
e 43 128
e 43 129
e 43 137
e 43 138
e 43 139
e 43 141
e 44 48
e 44 50
e 44 58
e 44 59
e 44 64
e 44 67
e 44 70
e 44 85
e 44 88
e 44 93
e 44 94
e 44 95
e 44 98
e 44 99
e 44 102
e 44 103
e 44 110
e 44 114
e 44 124
e 44 129
e 44 131
e 44 135
e 44 141
e 44 143
e 44 145
e 44 149
e 44 150
e 45 46
e 45 62
e 45 73
e 45 78
e 45 94
e 45 97
e 45 98
e 45 104
e 45 106
e 45 108
e 45 109
e 45 121
e 45 124
e 45 125
e 45 129
e 45 135
e 45 140
e 45 142
e 45 143
e 45 146
e 45 148
e 45 150
e 46 51
e 46 54
e 46 58
e 46 63
e 46 70
e 46 71
e 46 73
e 46 76
e 46 77
e 46 78
e 46 87
e 46 90
e 46 91
e 46 93
e 46 95
e 46 97
e 46 98
e 46 99
e 46 103
e 46 107
e 46 114
e 46 118
e 46 126
e 46 129
e 46 132
e 46 136
e 46 138
e 46 139
e 46 147
e 46 149
e 46 150
e 47 50
e 47 51
e 47 56
e 47 59
e 47 68
e 47 75
e 47 79
e 47 80
e 47 82
e 47 83
e 47 84
e 47 88
e 47 91
e 47 95
e 47 99
e 47 103
e 47 114
e 47 118
e 47 119
e 47 125
e 47 129
e 47 132
e 47 134
e 47 149
e 48 49
e 48 50
e 48 54
e 48 58
e 48 65
e 48 67
e 48 70
e 48 77
e 48 80
e 48 81
e 48 82
e 48 84
e 48 89
e 48 96
e 48 100
e 48 101
e 48 102
e 48 103
e 48 104
e 48 112
e 48 116
e 48 117
e 48 122
e 48 124
e 48 125
e 48 128
e 48 134
e 48 139
e 48 144
e 48 146
e 48 149
e 48 150
e 49 51
e 49 52
e 49 53
e 49 54
e 49 55
e 49 66
e 49 71
e 49 76
e 49 90
e 49 94
e 49 96
e 49 101
e 49 106
e 49 107
e 49 109
e 49 116
e 49 118
e 49 120
e 49 123
e 49 129
e 49 130
e 49 148
e 50 52
e 50 54
e 50 59
e 50 62
e 50 65
e 50 69
e 50 71
e 50 77
e 50 86
e 50 88
e 50 95
e 50 101
e 50 102
e 50 104
e 50 108
e 50 113
e 50 117
e 50 119
e 50 120
e 50 123
e 50 129
e 50 135
e 50 136
e 50 140
e 50 142
e 50 145
e 50 148
e 50 149
e 51 53
e 51 61
e 51 64
e 51 67
e 51 69
e 51 72
e 51 75
e 51 81
e 51 91
e 51 108
e 51 113
e 51 119
e 51 121
e 51 129
e 51 130
e 51 131
e 51 136
e 51 137
e 51 138
e 51 141
e 51 145
e 51 149
e 51 150
e 52 53
e 52 54
e 52 60
e 52 68
e 52 69
e 52 70
e 52 79
e 52 80
e 52 81
e 52 87
e 52 89
e 52 92
e 52 93
e 52 99
e 52 101
e 52 110
e 52 113
e 52 116
e 52 117
e 52 119
e 52 131
e 52 134
e 52 141
e 52 142
e 52 148
e 53 54
e 53 55
e 53 56
e 53 58
e 53 59
e 53 61
e 53 66
e 53 68
e 53 72
e 53 73
e 53 74
e 53 79
e 53 81
e 53 83
e 53 86
e 53 96
e 53 98
e 53 99
e 53 108
e 53 110
e 53 111
e 53 112
e 53 117
e 53 119
e 53 125
e 53 130
e 53 131
e 53 132
e 53 139
e 53 145
e 53 147
e 53 148
e 53 150
e 54 60
e 54 65
e 54 69
e 54 70
e 54 72
e 54 76
e 54 79
e 54 81
e 54 82
e 54 87
e 54 89
e 54 90
e 54 100
e 54 101
e 54 102
e 54 103
e 54 104
e 54 105
e 54 110
e 54 114
e 54 123
e 54 129
e 54 136
e 54 139
e 54 142
e 54 146
e 55 57
e 55 58
e 55 60
e 55 61
e 55 64
e 55 67
e 55 68
e 55 74
e 55 84
e 55 91
e 55 93
e 55 96
e 55 102
e 55 106
e 55 109
e 55 110
e 55 111
e 55 119
e 55 121
e 55 122
e 55 126
e 55 128
e 55 133
e 55 134
e 55 135
e 55 136
e 55 137
e 55 143
e 55 144
e 55 146
e 55 147
e 55 149
e 55 150
e 56 57
e 56 59
e 56 61
e 56 67
e 56 71
e 56 77
e 56 79
e 56 81
e 56 83
e 56 85
e 56 92
e 56 94
e 56 99
e 56 102
e 56 103
e 56 104
e 56 107
e 56 108
e 56 111
e 56 115
e 56 116
e 56 117
e 56 119
e 56 127
e 56 132
e 56 133
e 56 137
e 56 145
e 56 147
e 56 150
e 57 61
e 57 63
e 57 80
e 57 88
e 57 91
e 57 98
e 57 101
e 57 106
e 57 108
e 57 114
e 57 118
e 57 119
e 57 121
e 57 123
e 57 125
e 57 127
e 57 128
e 57 133
e 57 136
e 57 138
e 57 139
e 57 141
e 57 143
e 57 144
e 57 146
e 57 149
e 58 60
e 58 63
e 58 66
e 58 67
e 58 71
e 58 78
e 58 82
e 58 83
e 58 87
e 58 89
e 58 90
e 58 94
e 58 96
e 58 98
e 58 99
e 58 100
e 58 104
e 58 106
e 58 109
e 58 114
e 58 115
e 58 116
e 58 117
e 58 121
e 58 131
e 58 136
e 58 137
e 58 140
e 58 142
e 58 143
e 58 149
e 59 63
e 59 64
e 59 66
e 59 72
e 59 75
e 59 76
e 59 80
e 59 84
e 59 85
e 59 86
e 59 88
e 59 89
e 59 91
e 59 92
e 59 94
e 59 96
e 59 103
e 59 110
e 59 112
e 59 113
e 59 116
e 59 117
e 59 118
e 59 120
e 59 123
e 59 124
e 59 125
e 59 129
e 59 130
e 59 131
e 59 134
e 59 135
e 59 139
e 59 142
e 59 150
e 60 63
e 60 64
e 60 73
e 60 76
e 60 78
e 60 82
e 60 86
e 60 89
e 60 91
e 60 92
e 60 93
e 60 94
e 60 100
e 60 104
e 60 112
e 60 116
e 60 117
e 60 119
e 60 120
e 60 124
e 60 126
e 60 128
e 60 134
e 60 138
e 60 140
e 60 141
e 60 142
e 60 143
e 60 149
e 60 150
e 61 64
e 61 67
e 61 71
e 61 77
e 61 81
e 61 82
e 61 85
e 61 89
e 61 97
e 61 98
e 61 99
e 61 103
e 61 107
e 61 109
e 61 110
e 61 117
e 61 118
e 61 122
e 61 131
e 61 138
e 61 143
e 61 148
e 61 150
e 62 65
e 62 66
e 62 70
e 62 79
e 62 87
e 62 88
e 62 90
e 62 95
e 62 97
e 62 99
e 62 100
e 62 102
e 62 103
e 62 105
e 62 109
e 62 118
e 62 123
e 62 127
e 62 133
e 62 134
e 62 135
e 62 140
e 62 142
e 62 146
e 63 64
e 63 72
e 63 74
e 63 75
e 63 80
e 63 82
e 63 84
e 63 88
e 63 91
e 63 92
e 63 94
e 63 95
e 63 96
e 63 98
e 63 99
e 63 101
e 63 102
e 63 110
e 63 111
e 63 112
e 63 115
e 63 116
e 63 118
e 63 124
e 63 129
e 63 136
e 63 142
e 63 144
e 63 147
e 64 67
e 64 74
e 64 80
e 64 88
e 64 91
e 64 93
e 64 95
e 64 96
e 64 100
e 64 101
e 64 102
e 64 104
e 64 105
e 64 106
e 64 110
e 64 112
e 64 113
e 64 115
e 64 116
e 64 123
e 64 126
e 64 127
e 64 129
e 64 130
e 64 137
e 64 139
e 64 143
e 64 148
e 65 70
e 65 71
e 65 74
e 65 76
e 65 77
e 65 79
e 65 82
e 65 83
e 65 85
e 65 86
e 65 89
e 65 90
e 65 91
e 65 93
e 65 94
e 65 95
e 65 96
e 65 98
e 65 99
e 65 102
e 65 103
e 65 105
e 65 107
e 65 111
e 65 112
e 65 113
e 65 121
e 65 122
e 65 123
e 65 126
e 65 133
e 65 135
e 65 141
e 66 67
e 66 70
e 66 72
e 66 74
e 66 75
e 66 79
e 66 81
e 66 92
e 66 94
e 66 101
e 66 103
e 66 105
e 66 106
e 66 107
e 66 108
e 66 109
e 66 110
e 66 112
e 66 113
e 66 115
e 66 116
e 66 117
e 66 118
e 66 123
e 66 127
e 66 128
e 66 130
e 66 134
e 66 135
e 66 142
e 66 144
e 66 150
e 67 68
e 67 70
e 67 74
e 67 77
e 67 78
e 67 80
e 67 81
e 67 83
e 67 85
e 67 86
e 67 92
e 67 96
e 67 98
e 67 101
e 67 104
e 67 106
e 67 111
e 67 117
e 67 119
e 67 121
e 67 123
e 67 129
e 67 130
e 67 131
e 67 139
e 67 143
e 67 148
e 68 69
e 68 75
e 68 77
e 68 80
e 68 81
e 68 83
e 68 86
e 68 87
e 68 91
e 68 95
e 68 96
e 68 97
e 68 103
e 68 104
e 68 105
e 68 109
e 68 110
e 68 111
e 68 113
e 68 119
e 68 130
e 68 132
e 68 133
e 68 139
e 68 140
e 68 143
e 68 145
e 68 146
e 68 149
e 68 150
e 69 70
e 69 75
e 69 84
e 69 99
e 69 104
e 69 112
e 69 113
e 69 116
e 69 120
e 69 122
e 69 125
e 69 126
e 69 131
e 69 141
e 69 149
e 69 150
e 70 78
e 70 84
e 70 87
e 70 90
e 70 93
e 70 108
e 70 109
e 70 122
e 70 126
e 70 131
e 70 134
e 70 135
e 70 136
e 70 137
e 70 139
e 70 142
e 70 143
e 70 146
e 70 148
e 70 150
e 71 76
e 71 77
e 71 79
e 71 81
e 71 88
e 71 89
e 71 94
e 71 96
e 71 104
e 71 106
e 71 109
e 71 113
e 71 114
e 71 116
e 71 124
e 71 125
e 71 131
e 71 137
e 71 138
e 71 143
e 71 149
e 71 150
e 72 75
e 72 76
e 72 77
e 72 79
e 72 80
e 72 83
e 72 84
e 72 86
e 72 90
e 72 93
e 72 110
e 72 111
e 72 112
e 72 117
e 72 119
e 72 120
e 72 122
e 72 131
e 72 137
e 72 139
e 72 149
e 73 84
e 73 85
e 73 86
e 73 88
e 73 91
e 73 92
e 73 101
e 73 102
e 73 103
e 73 110
e 73 119
e 73 120
e 73 125
e 73 126
e 73 128
e 73 130
e 73 134
e 73 135
e 73 138
e 73 139
e 73 141
e 73 144
e 73 148
e 73 149
e 74 78
e 74 83
e 74 85
e 74 89
e 74 90
e 74 97
e 74 104
e 74 109
e 74 111
e 74 113
e 74 115
e 74 117
e 74 119
e 74 125
e 74 126
e 74 130
e 74 131
e 74 137
e 74 142
e 74 143
e 74 144
e 75 78
e 75 80
e 75 81
e 75 87
e 75 92
e 75 95
e 75 97
e 75 109
e 75 110
e 75 113
e 75 114
e 75 116
e 75 117
e 75 118
e 75 120
e 75 121
e 75 125
e 75 130
e 75 131
e 75 132
e 75 138
e 75 139
e 75 143
e 75 147
e 76 77
e 76 80
e 76 82
e 76 87
e 76 88
e 76 92
e 76 93
e 76 94
e 76 99
e 76 104
e 76 106
e 76 111
e 76 112
e 76 113
e 76 118
e 76 119
e 76 120
e 76 121
e 76 126
e 76 127
e 76 129
e 76 131
e 76 137
e 76 141
e 76 145
e 77 81
e 77 85
e 77 88
e 77 89
e 77 97
e 77 101
e 77 103
e 77 105
e 77 106
e 77 109
e 77 111
e 77 115
e 77 117
e 77 119
e 77 120
e 77 122
e 77 124
e 77 125
e 77 133
e 77 135
e 77 141
e 77 142
e 77 145
e 77 148
e 77 150
e 78 81
e 78 84
e 78 86
e 78 87
e 78 89
e 78 90
e 78 94
e 78 95
e 78 96
e 78 98
e 78 99
e 78 102
e 78 104
e 78 108
e 78 110
e 78 114
e 78 118
e 78 121
e 78 124
e 78 125
e 78 128
e 78 129
e 78 131
e 78 134
e 78 140
e 78 142
e 78 144
e 79 81
e 79 86
e 79 90
e 79 93
e 79 95
e 79 96
e 79 106
e 79 107
e 79 114
e 79 115
e 79 119
e 79 135
e 79 140
e 79 144
e 79 149
e 80 86
e 80 90
e 80 94
e 80 95
e 80 97
e 80 99
e 80 101
e 80 104
e 80 107
e 80 109
e 80 114
e 80 119
e 80 121
e 80 123
e 80 126
e 80 127
e 80 131
e 80 140
e 80 141
e 80 144
e 80 146
e 80 150
e 81 82
e 81 83
e 81 86
e 81 91
e 81 102
e 81 103
e 81 105
e 81 111
e 81 116
e 81 117
e 81 120
e 81 124
e 81 128
e 81 132
e 81 134
e 82 87
e 82 88
e 82 89
e 82 102
e 82 103
e 82 115
e 82 118
e 82 127
e 82 135
e 82 137
e 82 140
e 82 145
e 82 146
e 82 149
e 83 88
e 83 89
e 83 95
e 83 96
e 83 99
e 83 101
e 83 104
e 83 106
e 83 108
e 83 112
e 83 115
e 83 118
e 83 124
e 83 125
e 83 128
e 83 129
e 83 133
e 83 134
e 83 136
e 83 137
e 83 142
e 83 149
e 83 150
e 84 89
e 84 97
e 84 101
e 84 102
e 84 103
e 84 105
e 84 118
e 84 124
e 84 126
e 84 128
e 84 136
e 84 138
e 84 139
e 84 140
e 84 145
e 84 147
e 84 148
e 84 149
e 85 86
e 85 87
e 85 91
e 85 95
e 85 98
e 85 99
e 85 105
e 85 112
e 85 113
e 85 120
e 85 121
e 85 126
e 85 128
e 85 129
e 85 135
e 85 136
e 85 142
e 85 149
e 85 150
e 86 87
e 86 89
e 86 91
e 86 92
e 86 93
e 86 95
e 86 100
e 86 102
e 86 103
e 86 106
e 86 107
e 86 110
e 86 114
e 86 115
e 86 130
e 86 136
e 86 139
e 86 142
e 86 149
e 86 150
e 87 89
e 87 94
e 87 111
e 87 115
e 87 116
e 87 117
e 87 118
e 87 120
e 87 129
e 87 134
e 87 141
e 87 143
e 88 89
e 88 90
e 88 91
e 88 98
e 88 101
e 88 102
e 88 105
e 88 107
e 88 110
e 88 111
e 88 113
e 88 116
e 88 117
e 88 118
e 88 123
e 88 125
e 88 129
e 88 131
e 88 132
e 88 133
e 88 134
e 88 138
e 88 139
e 88 142
e 88 148
e 88 149
e 89 96
e 89 105
e 89 107
e 89 108
e 89 114
e 89 120
e 89 124
e 89 130
e 89 132
e 89 135
e 89 144
e 89 147
e 90 98
e 90 101
e 90 105
e 90 106
e 90 110
e 90 112
e 90 114
e 90 115
e 90 117
e 90 120
e 90 122
e 90 131
e 90 136
e 90 139
e 90 142
e 90 149
e 91 94
e 91 97
e 91 99
e 91 103
e 91 104
e 91 106
e 91 108
e 91 110
e 91 111
e 91 114
e 91 116
e 91 121
e 91 127
e 91 128
e 91 129
e 91 134
e 91 135
e 91 138
e 91 139
e 91 141
e 91 142
e 91 147
e 92 93
e 92 95
e 92 96
e 92 97
e 92 102
e 92 105
e 92 111
e 92 112
e 92 124
e 92 125
e 92 127
e 92 129
e 92 132
e 92 137
e 92 143
e 92 146
e 92 149
e 93 96
e 93 102
e 93 106
e 93 110
e 93 114
e 93 120
e 93 122
e 93 125
e 93 131
e 93 134
e 93 137
e 93 139
e 93 140
e 93 150
e 94 109
e 94 114
e 94 118
e 94 119
e 94 123
e 94 125
e 94 126
e 94 129
e 94 130
e 94 134
e 94 138
e 94 139
e 94 145
e 95 97
e 95 98
e 95 101
e 95 103
e 95 109
e 95 115
e 95 117
e 95 118
e 95 119
e 95 121
e 95 130
e 95 133
e 95 134
e 95 136
e 95 140
e 95 142
e 95 143
e 95 145
e 95 146
e 95 148
e 96 98
e 96 99
e 96 101
e 96 102
e 96 105
e 96 106
e 96 108
e 96 109
e 96 111
e 96 113
e 96 115
e 96 120
e 96 122
e 96 127
e 96 128
e 96 132
e 96 149
e 96 150
e 97 98
e 97 108
e 97 112
e 97 118
e 97 121
e 97 126
e 97 131
e 97 133
e 97 138
e 97 141
e 97 142
e 97 144
e 97 146
e 97 147
e 97 149
e 98 106
e 98 107
e 98 112
e 98 113
e 98 114
e 98 115
e 98 117
e 98 121
e 98 122
e 98 124
e 98 127
e 98 128
e 98 130
e 98 135
e 98 143
e 98 145
e 98 146
e 98 148
e 98 150
e 99 102
e 99 109
e 99 111
e 99 113
e 99 115
e 99 120
e 99 121
e 99 124
e 99 128
e 99 129
e 99 135
e 99 136
e 99 142
e 99 147
e 100 103
e 100 108
e 100 111
e 100 112
e 100 113
e 100 115
e 100 119
e 100 123
e 100 125
e 100 126
e 100 127
e 100 136
e 100 137
e 100 138
e 100 139
e 100 141
e 100 150
e 101 104
e 101 109
e 101 115
e 101 120
e 101 121
e 101 125
e 101 127
e 101 128
e 101 133
e 101 134
e 101 135
e 101 137
e 101 139
e 101 140
e 101 141
e 101 142
e 101 145
e 101 146
e 101 150
e 102 114
e 102 115
e 102 120
e 102 123
e 102 129
e 102 133
e 102 134
e 102 135
e 102 138
e 102 143
e 102 144
e 102 145
e 103 108
e 103 109
e 103 111
e 103 114
e 103 120
e 103 122
e 103 125
e 103 126
e 103 132
e 103 133
e 103 135
e 103 137
e 103 139
e 103 140
e 103 141
e 103 142
e 103 143
e 104 107
e 104 108
e 104 109
e 104 113
e 104 115
e 104 117
e 104 118
e 104 120
e 104 121
e 104 124
e 104 126
e 104 127
e 104 128
e 104 129
e 104 131
e 104 133
e 104 137
e 104 142
e 104 144
e 104 145
e 104 146
e 104 149
e 105 109
e 105 111
e 105 113
e 105 125
e 105 126
e 105 130
e 105 131
e 105 135
e 105 136
e 105 144
e 105 150
e 106 108
e 106 110
e 106 113
e 106 115
e 106 116
e 106 117
e 106 118
e 106 119
e 106 127
e 106 134
e 106 135
e 106 141
e 106 146
e 106 147
e 106 148
e 106 149
e 107 121
e 107 122
e 107 125
e 107 127
e 107 130
e 107 133
e 107 137
e 107 140
e 107 145
e 107 148
e 107 149
e 108 112
e 108 118
e 108 121
e 108 123
e 108 126
e 108 131
e 108 132
e 108 134
e 108 135
e 108 136
e 108 137
e 108 140
e 109 112
e 109 116
e 109 121
e 109 122
e 109 127
e 109 133
e 109 134
e 109 136
e 109 138
e 109 143
e 109 145
e 110 111
e 110 112
e 110 114
e 110 116
e 110 118
e 110 120
e 110 133
e 110 137
e 110 138
e 110 141
e 110 143
e 110 148
e 111 112
e 111 118
e 111 121
e 111 123
e 111 134
e 111 136
e 111 141
e 111 142
e 111 144
e 111 148
e 112 114
e 112 117
e 112 118
e 112 121
e 112 124
e 112 128
e 112 131
e 112 135
e 112 140
e 112 144
e 112 146
e 113 115
e 113 122
e 113 126
e 113 128
e 113 132
e 113 133
e 113 134
e 113 137
e 113 138
e 113 139
e 113 145
e 113 149
e 114 115
e 114 123
e 114 125
e 114 126
e 114 129
e 114 135
e 114 137
e 114 141
e 114 142
e 114 144
e 114 150
e 115 120
e 115 122
e 115 129
e 115 130
e 115 131
e 115 135
e 115 136
e 115 141
e 115 149
e 116 118
e 116 121
e 116 123
e 116 128
e 116 131
e 116 139
e 116 142
e 116 143
e 116 145
e 117 122
e 117 127
e 117 129
e 117 135
e 117 137
e 117 146
e 117 147
e 117 148
e 118 119
e 118 120
e 118 125
e 118 129
e 118 131
e 118 133
e 118 135
e 118 136
e 118 142
e 118 149
e 119 122
e 119 135
e 119 137
e 119 143
e 119 146
e 119 147
e 119 150
e 120 127
e 120 128
e 120 135
e 120 139
e 120 140
e 120 144
e 120 146
e 120 147
e 121 125
e 121 134
e 121 136
e 121 137
e 121 142
e 121 144
e 121 149
e 122 132
e 122 135
e 122 136
e 122 146
e 122 147
e 122 150
e 123 129
e 123 130
e 123 131
e 123 135
e 123 140
e 123 143
e 123 145
e 124 126
e 124 127
e 124 131
e 124 140
e 124 141
e 124 142
e 124 148
e 124 149
e 124 150
e 125 132
e 125 133
e 125 137
e 125 139
e 125 144
e 125 148
e 126 128
e 126 132
e 126 134
e 126 138
e 126 140
e 126 145
e 127 129
e 127 131
e 127 132
e 127 135
e 127 138
e 127 139
e 127 145
e 127 147
e 127 149
e 127 150
e 128 132
e 128 139
e 128 142
e 128 148
e 128 150
e 129 132
e 129 135
e 129 137
e 129 138
e 129 141
e 129 142
e 129 145
e 129 146
e 129 148
e 129 149
e 130 131
e 130 139
e 130 142
e 130 143
e 130 145
e 130 148
e 130 150
e 131 132
e 131 133
e 131 135
e 131 139
e 131 145
e 132 135
e 132 139
e 132 143
e 132 145
e 133 137
e 133 143
e 133 145
e 133 147
e 134 136
e 134 141
e 134 142
e 134 144
e 134 145
e 134 147
e 134 148
e 134 150
e 135 142
e 135 144
e 135 145
e 135 150
e 136 138
e 136 140
e 136 143
e 136 146
e 136 147
e 137 142
e 137 145
e 137 149
e 137 150
e 138 140
e 138 143
e 138 146
e 138 147
e 139 140
e 139 144
e 139 145
e 139 150
e 140 141
e 140 143
e 140 147
e 140 149
e 141 143
e 141 145
e 141 150
e 142 149
e 143 146
e 143 148
e 144 145
e 144 150
e 145 149
e 145 150
e 146 147
e 146 148
e 147 148
